% Auto-generated by scripts/generate_dzn.py
% problem_type   = regex
% instance       = regex_55
% source_json    = instances_json/1_medium_blowup/regex_55.json
% blowup         = 9.875
% representation = NFA

mode = 1;

var_count = 18;
n_constraints = 2;
Q = 10;
S = 3;
q0 = [1, 1];
F = [{10}, {6}];
weights = [3, 5, 4, 3, 2, 10, 2, 7, 7, 3, 8, 8, 7, 8, 6, 2, 5, 2];
d_dfa = array3d(1..2, 1..10, 1..3, [
  % k = 1
    0, 0, 0,
    0, 0, 0,
    0, 0, 0,
    0, 0, 0,
    0, 0, 0,
    0, 0, 0,
    0, 0, 0,
    0, 0, 0,
    0, 0, 0,
    0, 0, 0,

  % k = 2
    0, 0, 0,
    0, 0, 0,
    0, 0, 0,
    0, 0, 0,
    0, 0, 0,
    0, 0, 0,
    0, 0, 0,
    0, 0, 0,
    0, 0, 0,
    0, 0, 0
]);
d_nfa = array3d(1..2, 1..10, 1..3, [
  % k = 1
    {1}, {1}, {1, 2},
    {}, {}, {3},
    {4}, {4}, {4},
    {5}, {5}, {5},
    {6}, {6}, {6},
    {7}, {7}, {7},
    {8}, {8}, {8},
    {9}, {9}, {9},
    {10}, {10}, {10},
    {}, {}, {},

  % k = 2
    {1}, {1}, {2},
    {2}, {2}, {3},
    {3}, {3}, {4},
    {4}, {4}, {5},
    {5}, {5}, {6},
    {6}, {6}, {},
    {}, {}, {},
    {}, {}, {},
    {}, {}, {},
    {}, {}, {}
]);
